instances/knapsack/discrete_knapsack_uncertainty/knapsack_80_5.lp
\ Model knapsack_80_5
\ LP format - for model browsing. Use MPS format to capture full model detail.
\ Signature: 0xf86d0bbf74a39a5e
Minimize
  - 83 x[0] - 87 x[1] - 25 x[2] - 77 x[3] - 62 x[4] - 22 x[5] - 62 x[6]
   - 64 x[7] - 31 x[8] - 79 x[9] - 40 x[10] - 12 x[11] - 32 x[12]
   - 43 x[13] - 72 x[14] - 81 x[15] - 35 x[16] - 99 x[17] - 31 x[18]
   - 30 x[19] - 18 x[20] - 48 x[21] - 29 x[22] - 97 x[23] - 70 x[24]
   - 75 x[25] - 93 x[26] - 48 x[27] - 83 x[28] - 9 x[29] - 42 x[30]
   - 21 x[31] - 17 x[32] - 24 x[33] - 92 x[34] - 90 x[35] - 62 x[36]
   - 16 x[37] - 23 x[38] - 32 x[39] - 53 x[40] - 18 x[41] - 74 x[42]
   - 92 x[43] - 43 x[44] - 8 x[45] - 9 x[46] - 53 x[47] - 89 x[48]
   - 74 x[49] - 76 x[50] - 3 x[51] - 24 x[52] - 94 x[53] - 81 x[54]
   - 11 x[55] - 7 x[56] - 25 x[57] - 25 x[58] - 92 x[59] - 5 x[60]
   - 27 x[61] - 26 x[62] - 2 x[63] - 79 x[64] - 2 x[65] - 38 x[66]
   - 98 x[67] - 57 x[68] - 10 x[69] - 2 x[70] - 28 x[71] - 30 x[72]
   - 66 x[73] - 59 x[74] - 99 x[75] - 39 x[76] - 90 x[77] - 33 x[78]
   - 72 x[79]
Subject To
 primal_upper: 94 x[0] + 7 x[1] + 57 x[2] + 82 x[3] + 75 x[4] + 76 x[5]
   + 64 x[6] + 38 x[7] + 76 x[8] + 81 x[9] + 62 x[10] + 70 x[11] + 27 x[12]
   + 71 x[13] + 19 x[14] + 55 x[15] + 48 x[16] + 99 x[17] + 80 x[18]
   + 97 x[19] + 76 x[20] + 82 x[21] + 55 x[22] + 93 x[23] + 47 x[24]
   + 43 x[25] + 97 x[26] + 54 x[27] + 52 x[28] + 98 x[29] + 60 x[30]
   + 58 x[31] + 70 x[32] + 96 x[33] + 63 x[34] + 92 x[35] + 95 x[36]
   + 75 x[37] + 71 x[38] + 93 x[39] + 42 x[40] + 72 x[41] + 53 x[42]
   + 88 x[43] + 2 x[44] + 93 x[45] + 4 x[46] + 56 x[47] + 66 x[48]
   + 15 x[49] + 17 x[50] + 99 x[51] + 88 x[52] + 23 x[53] + 71 x[54]
   + 2 x[55] + 96 x[56] + x[57] + 79 x[58] + 29 x[59] + 39 x[60] + 65 x[61]
   + 62 x[62] + 65 x[63] + 94 x[64] + 15 x[65] + 15 x[66] + 9 x[67]
   + 55 x[68] + 80 x[69] + 60 x[70] + 56 x[71] + 85 x[72] + 26 x[73]
   + 78 x[74] + 27 x[75] + 9 x[76] + 58 x[77] + 7 x[78] + 9 x[79]
   + 9.4 r[0] + 0.7 r[1] + 5.7 r[2] + 8.2 r[3] + 7.5 r[4] + 7.6 r[5]
   + 6.4 r[6] + 3.8 r[7] + 7.6 r[8] + 8.1 r[9] + 6.2 r[10] + 7 r[11]
   + 2.7 r[12] + 7.1 r[13] + 1.9 r[14] + 5.5 r[15] + 4.8 r[16] + 9.9 r[17]
   + 8 r[18] + 9.7 r[19] + 7.6 r[20] + 8.2 r[21] + 5.5 r[22] + 9.3 r[23]
   + 4.7 r[24] + 4.3 r[25] + 9.7 r[26] + 5.4 r[27] + 5.2 r[28] + 9.8 r[29]
   + 6 r[30] + 5.8 r[31] + 7 r[32] + 9.6 r[33] + 6.3 r[34] + 9.2 r[35]
   + 9.5 r[36] + 7.5 r[37] + 7.1 r[38] + 9.3 r[39] + 4.2 r[40] + 7.2 r[41]
   + 5.3 r[42] + 8.8 r[43] + 0.2 r[44] + 9.3 r[45] + 0.4 r[46] + 5.6 r[47]
   + 6.6 r[48] + 1.5 r[49] + 1.7 r[50] + 9.9 r[51] + 8.8 r[52] + 2.3 r[53]
   + 7.1 r[54] + 0.2 r[55] + 9.6 r[56] + 0.1 r[57] + 7.9 r[58] + 2.9 r[59]
   + 3.9 r[60] + 6.5 r[61] + 6.2 r[62] + 6.5 r[63] + 9.4 r[64] + 1.5 r[65]
   + 1.5 r[66] + 0.9 r[67] + 5.5 r[68] + 8 r[69] + 6 r[70] + 5.6 r[71]
   + 8.5 r[72] + 2.6 r[73] + 7.8 r[74] + 2.7 r[75] + 0.9 r[76] + 5.8 r[77]
   + 0.7 r[78] + 0.9 r[79] <= 443
 primal_lower: 3.374809325781819 x[0] + 2.941565335233594 x[1]
   + 1.005338209785773 x[2] + 0.5862081935257603 x[3]
   + 3.802313490712685 x[4] + 4.37719629217006 x[5]
   + 3.299690822866063 x[6] + 2.374963508719249 x[7]
   + 1.163475503361599 x[8] + 3.660107660625076 x[9]
   + 2.99045446079329 x[10] + 2.800391220866208 x[11]
   + 3.553464464712488 x[12] + 3.432432823409711 x[13]
   + 0.9236398592667346 x[14] + 0.0758280558797955 x[15]
   + 4.524620780025812 x[16] + 2.633187598531395 x[17]
   + 4.838428340794318 x[18] + 3.902487657381246 x[19]
   + 2.977631742205014 x[20] + 3.260259934135183 x[21]
   + 0.9144057670062481 x[22] + 4.44077389481352 x[23]
   + 2.80026128872839 x[24] + 0.4001842036276237 x[25]
   + 4.487374845756096 x[26] + 0.310021432561453 x[27]
   + 2.138763161851545 x[28] + 2.597766194428608 x[29] + 0.0754836 x[30]
   + 0.9708174271929656 x[31] + 4.317017854641904 x[32]
   + 1.449091970541139 x[33] + 3.540401532852413 x[34]
   + 0.0170743160372735 x[35] + 4.581244554851163 x[36]
   + 1.378239872241437 x[37] + 3.023343687679059 x[38]
   + 0.6952926033149911 x[39] + 4.190098858278628 x[40]
   + 3.170352138164158 x[41] + 4.074117949222709 x[42]
   + 4.728839020539282 x[43] + 1.073335085604044 x[44]
   + 1.565836503299846 x[45] + 0.2132104783264919 x[46]
   + 2.16499184857404 x[47] + 2.563003978461879 x[48]
   + 4.880536806563329 x[49] + 3.878315458613625 x[50]
   + 1.243766351493518 x[51] + 4.63217388873004 x[52]
   + 3.084909065441451 x[53] + 4.855212915175048 x[54]
   + 3.50968314928199 x[55] + 3.109292559532029 x[56]
   + 0.754617556327942 x[57] + 3.497756163501035 x[58]
   + 3.086507037594214 x[59] + 2.914905044609192 x[60]
   + 1.255524974049844 x[61] + 4.570363416166285 x[62]
   + 1.643442882011347 x[63] + 1.345477611441367 x[64]
   + 1.366050580909254 x[65] + 2.923483894089445 x[66]
   + 1.990953891992475 x[67] + 2.853726602802678 x[68]
   + 3.797967128570633 x[69] + 3.015485809260517 x[70]
   + 0.0812424266827097 x[71] + 2.029161436648175 x[72]
   + 4.349842319247981 x[73] + 1.439491300422613 x[74]
   + 1.923865056683412 x[75] + 1.764712414837313 x[76]
   + 0.3760669194436373 x[77] + 3.566169462389354 x[78]
   + 2.472486148403672 x[79] + 29 u[0] + 69 u[1] + 27 u[2] + 68 u[3]
   + 41 u[4] + 3 u[5] + 78 u[6] + 93 u[7] + 62 u[8] + 95 u[9] + 73 u[10]
   + 88 u[11] + 45 u[12] + 65 u[13] + 90 u[14] + 58 u[15] + 70 u[16]
   + 53 u[17] + 10 u[18] + 55 u[19] + 54 u[20] + 41 u[21] + 29 u[22]
   + 72 u[23] + 78 u[24] + 73 u[25] + 91 u[26] + 93 u[27] + 35 u[28]
   + 100 u[29] + 99 u[30] + 45 u[31] + 69 u[32] + 74 u[33] + 93 u[34]
   + 94 u[35] + 69 u[36] + 2 u[37] + 9 u[38] + 24 u[39] + 32 u[40]
   + 39 u[41] + 63 u[42] + 43 u[43] + 36 u[44] + 60 u[45] + 27 u[46]
   + 67 u[47] + 40 u[48] + 93 u[49] + 20 u[50] + 45 u[51] + 86 u[52]
   + 53 u[53] + 50 u[54] + 13 u[55] + 22 u[56] + 36 u[57] + 53 u[58]
   + 43 u[59] + 62 u[60] + 68 u[61] + 97 u[62] + 20 u[63] + 57 u[64]
   + 17 u[65] + 22 u[66] + 32 u[67] + 37 u[68] + 75 u[69] + 67 u[70]
   + 19 u[71] + 47 u[72] + 52 u[73] + 73 u[74] + 34 u[75] + 68 u[76]
   + 52 u[77] + 62 u[78] + 8 u[79] <= 18236
 mccormick1[0]: - u[0] + r[0] <= 0
 mccormick1[1]: - u[1] + r[1] <= 0
 mccormick1[2]: - u[2] + r[2] <= 0
 mccormick1[3]: - u[3] + r[3] <= 0
 mccormick1[4]: - u[4] + r[4] <= 0
 mccormick1[5]: - u[5] + r[5] <= 0
 mccormick1[6]: - u[6] + r[6] <= 0
 mccormick1[7]: - u[7] + r[7] <= 0
 mccormick1[8]: - u[8] + r[8] <= 0
 mccormick1[9]: - u[9] + r[9] <= 0
 mccormick1[10]: - u[10] + r[10] <= 0
 mccormick1[11]: - u[11] + r[11] <= 0
 mccormick1[12]: - u[12] + r[12] <= 0
 mccormick1[13]: - u[13] + r[13] <= 0
 mccormick1[14]: - u[14] + r[14] <= 0
 mccormick1[15]: - u[15] + r[15] <= 0
 mccormick1[16]: - u[16] + r[16] <= 0
 mccormick1[17]: - u[17] + r[17] <= 0
 mccormick1[18]: - u[18] + r[18] <= 0
 mccormick1[19]: - u[19] + r[19] <= 0
 mccormick1[20]: - u[20] + r[20] <= 0
 mccormick1[21]: - u[21] + r[21] <= 0
 mccormick1[22]: - u[22] + r[22] <= 0
 mccormick1[23]: - u[23] + r[23] <= 0
 mccormick1[24]: - u[24] + r[24] <= 0
 mccormick1[25]: - u[25] + r[25] <= 0
 mccormick1[26]: - u[26] + r[26] <= 0
 mccormick1[27]: - u[27] + r[27] <= 0
 mccormick1[28]: - u[28] + r[28] <= 0
 mccormick1[29]: - u[29] + r[29] <= 0
 mccormick1[30]: - u[30] + r[30] <= 0
 mccormick1[31]: - u[31] + r[31] <= 0
 mccormick1[32]: - u[32] + r[32] <= 0
 mccormick1[33]: - u[33] + r[33] <= 0
 mccormick1[34]: - u[34] + r[34] <= 0
 mccormick1[35]: - u[35] + r[35] <= 0
 mccormick1[36]: - u[36] + r[36] <= 0
 mccormick1[37]: - u[37] + r[37] <= 0
 mccormick1[38]: - u[38] + r[38] <= 0
 mccormick1[39]: - u[39] + r[39] <= 0
 mccormick1[40]: - u[40] + r[40] <= 0
 mccormick1[41]: - u[41] + r[41] <= 0
 mccormick1[42]: - u[42] + r[42] <= 0
 mccormick1[43]: - u[43] + r[43] <= 0
 mccormick1[44]: - u[44] + r[44] <= 0
 mccormick1[45]: - u[45] + r[45] <= 0
 mccormick1[46]: - u[46] + r[46] <= 0
 mccormick1[47]: - u[47] + r[47] <= 0
 mccormick1[48]: - u[48] + r[48] <= 0
 mccormick1[49]: - u[49] + r[49] <= 0
 mccormick1[50]: - u[50] + r[50] <= 0
 mccormick1[51]: - u[51] + r[51] <= 0
 mccormick1[52]: - u[52] + r[52] <= 0
 mccormick1[53]: - u[53] + r[53] <= 0
 mccormick1[54]: - u[54] + r[54] <= 0
 mccormick1[55]: - u[55] + r[55] <= 0
 mccormick1[56]: - u[56] + r[56] <= 0
 mccormick1[57]: - u[57] + r[57] <= 0
 mccormick1[58]: - u[58] + r[58] <= 0
 mccormick1[59]: - u[59] + r[59] <= 0
 mccormick1[60]: - u[60] + r[60] <= 0
 mccormick1[61]: - u[61] + r[61] <= 0
 mccormick1[62]: - u[62] + r[62] <= 0
 mccormick1[63]: - u[63] + r[63] <= 0
 mccormick1[64]: - u[64] + r[64] <= 0
 mccormick1[65]: - u[65] + r[65] <= 0
 mccormick1[66]: - u[66] + r[66] <= 0
 mccormick1[67]: - u[67] + r[67] <= 0
 mccormick1[68]: - u[68] + r[68] <= 0
 mccormick1[69]: - u[69] + r[69] <= 0
 mccormick1[70]: - u[70] + r[70] <= 0
 mccormick1[71]: - u[71] + r[71] <= 0
 mccormick1[72]: - u[72] + r[72] <= 0
 mccormick1[73]: - u[73] + r[73] <= 0
 mccormick1[74]: - u[74] + r[74] <= 0
 mccormick1[75]: - u[75] + r[75] <= 0
 mccormick1[76]: - u[76] + r[76] <= 0
 mccormick1[77]: - u[77] + r[77] <= 0
 mccormick1[78]: - u[78] + r[78] <= 0
 mccormick1[79]: - u[79] + r[79] <= 0
 mccormick2[0]: - x[0] + r[0] <= 0
 mccormick2[1]: - x[1] + r[1] <= 0
 mccormick2[2]: - x[2] + r[2] <= 0
 mccormick2[3]: - x[3] + r[3] <= 0
 mccormick2[4]: - x[4] + r[4] <= 0
 mccormick2[5]: - x[5] + r[5] <= 0
 mccormick2[6]: - x[6] + r[6] <= 0
 mccormick2[7]: - x[7] + r[7] <= 0
 mccormick2[8]: - x[8] + r[8] <= 0
 mccormick2[9]: - x[9] + r[9] <= 0
 mccormick2[10]: - x[10] + r[10] <= 0
 mccormick2[11]: - x[11] + r[11] <= 0
 mccormick2[12]: - x[12] + r[12] <= 0
 mccormick2[13]: - x[13] + r[13] <= 0
 mccormick2[14]: - x[14] + r[14] <= 0
 mccormick2[15]: - x[15] + r[15] <= 0
 mccormick2[16]: - x[16] + r[16] <= 0
 mccormick2[17]: - x[17] + r[17] <= 0
 mccormick2[18]: - x[18] + r[18] <= 0
 mccormick2[19]: - x[19] + r[19] <= 0
 mccormick2[20]: - x[20] + r[20] <= 0
 mccormick2[21]: - x[21] + r[21] <= 0
 mccormick2[22]: - x[22] + r[22] <= 0
 mccormick2[23]: - x[23] + r[23] <= 0
 mccormick2[24]: - x[24] + r[24] <= 0
 mccormick2[25]: - x[25] + r[25] <= 0
 mccormick2[26]: - x[26] + r[26] <= 0
 mccormick2[27]: - x[27] + r[27] <= 0
 mccormick2[28]: - x[28] + r[28] <= 0
 mccormick2[29]: - x[29] + r[29] <= 0
 mccormick2[30]: - x[30] + r[30] <= 0
 mccormick2[31]: - x[31] + r[31] <= 0
 mccormick2[32]: - x[32] + r[32] <= 0
 mccormick2[33]: - x[33] + r[33] <= 0
 mccormick2[34]: - x[34] + r[34] <= 0
 mccormick2[35]: - x[35] + r[35] <= 0
 mccormick2[36]: - x[36] + r[36] <= 0
 mccormick2[37]: - x[37] + r[37] <= 0
 mccormick2[38]: - x[38] + r[38] <= 0
 mccormick2[39]: - x[39] + r[39] <= 0
 mccormick2[40]: - x[40] + r[40] <= 0
 mccormick2[41]: - x[41] + r[41] <= 0
 mccormick2[42]: - x[42] + r[42] <= 0
 mccormick2[43]: - x[43] + r[43] <= 0
 mccormick2[44]: - x[44] + r[44] <= 0
 mccormick2[45]: - x[45] + r[45] <= 0
 mccormick2[46]: - x[46] + r[46] <= 0
 mccormick2[47]: - x[47] + r[47] <= 0
 mccormick2[48]: - x[48] + r[48] <= 0
 mccormick2[49]: - x[49] + r[49] <= 0
 mccormick2[50]: - x[50] + r[50] <= 0
 mccormick2[51]: - x[51] + r[51] <= 0
 mccormick2[52]: - x[52] + r[52] <= 0
 mccormick2[53]: - x[53] + r[53] <= 0
 mccormick2[54]: - x[54] + r[54] <= 0
 mccormick2[55]: - x[55] + r[55] <= 0
 mccormick2[56]: - x[56] + r[56] <= 0
 mccormick2[57]: - x[57] + r[57] <= 0
 mccormick2[58]: - x[58] + r[58] <= 0
 mccormick2[59]: - x[59] + r[59] <= 0
 mccormick2[60]: - x[60] + r[60] <= 0
 mccormick2[61]: - x[61] + r[61] <= 0
 mccormick2[62]: - x[62] + r[62] <= 0
 mccormick2[63]: - x[63] + r[63] <= 0
 mccormick2[64]: - x[64] + r[64] <= 0
 mccormick2[65]: - x[65] + r[65] <= 0
 mccormick2[66]: - x[66] + r[66] <= 0
 mccormick2[67]: - x[67] + r[67] <= 0
 mccormick2[68]: - x[68] + r[68] <= 0
 mccormick2[69]: - x[69] + r[69] <= 0
 mccormick2[70]: - x[70] + r[70] <= 0
 mccormick2[71]: - x[71] + r[71] <= 0
 mccormick2[72]: - x[72] + r[72] <= 0
 mccormick2[73]: - x[73] + r[73] <= 0
 mccormick2[74]: - x[74] + r[74] <= 0
 mccormick2[75]: - x[75] + r[75] <= 0
 mccormick2[76]: - x[76] + r[76] <= 0
 mccormick2[77]: - x[77] + r[77] <= 0
 mccormick2[78]: - x[78] + r[78] <= 0
 mccormick2[79]: - x[79] + r[79] <= 0
 mccormick3[0]: x[0] + u[0] - r[0] <= 1
 mccormick3[1]: x[1] + u[1] - r[1] <= 1
 mccormick3[2]: x[2] + u[2] - r[2] <= 1
 mccormick3[3]: x[3] + u[3] - r[3] <= 1
 mccormick3[4]: x[4] + u[4] - r[4] <= 1
 mccormick3[5]: x[5] + u[5] - r[5] <= 1
 mccormick3[6]: x[6] + u[6] - r[6] <= 1
 mccormick3[7]: x[7] + u[7] - r[7] <= 1
 mccormick3[8]: x[8] + u[8] - r[8] <= 1
 mccormick3[9]: x[9] + u[9] - r[9] <= 1
 mccormick3[10]: x[10] + u[10] - r[10] <= 1
 mccormick3[11]: x[11] + u[11] - r[11] <= 1
 mccormick3[12]: x[12] + u[12] - r[12] <= 1
 mccormick3[13]: x[13] + u[13] - r[13] <= 1
 mccormick3[14]: x[14] + u[14] - r[14] <= 1
 mccormick3[15]: x[15] + u[15] - r[15] <= 1
 mccormick3[16]: x[16] + u[16] - r[16] <= 1
 mccormick3[17]: x[17] + u[17] - r[17] <= 1
 mccormick3[18]: x[18] + u[18] - r[18] <= 1
 mccormick3[19]: x[19] + u[19] - r[19] <= 1
 mccormick3[20]: x[20] + u[20] - r[20] <= 1
 mccormick3[21]: x[21] + u[21] - r[21] <= 1
 mccormick3[22]: x[22] + u[22] - r[22] <= 1
 mccormick3[23]: x[23] + u[23] - r[23] <= 1
 mccormick3[24]: x[24] + u[24] - r[24] <= 1
 mccormick3[25]: x[25] + u[25] - r[25] <= 1
 mccormick3[26]: x[26] + u[26] - r[26] <= 1
 mccormick3[27]: x[27] + u[27] - r[27] <= 1
 mccormick3[28]: x[28] + u[28] - r[28] <= 1
 mccormick3[29]: x[29] + u[29] - r[29] <= 1
 mccormick3[30]: x[30] + u[30] - r[30] <= 1
 mccormick3[31]: x[31] + u[31] - r[31] <= 1
 mccormick3[32]: x[32] + u[32] - r[32] <= 1
 mccormick3[33]: x[33] + u[33] - r[33] <= 1
 mccormick3[34]: x[34] + u[34] - r[34] <= 1
 mccormick3[35]: x[35] + u[35] - r[35] <= 1
 mccormick3[36]: x[36] + u[36] - r[36] <= 1
 mccormick3[37]: x[37] + u[37] - r[37] <= 1
 mccormick3[38]: x[38] + u[38] - r[38] <= 1
 mccormick3[39]: x[39] + u[39] - r[39] <= 1
 mccormick3[40]: x[40] + u[40] - r[40] <= 1
 mccormick3[41]: x[41] + u[41] - r[41] <= 1
 mccormick3[42]: x[42] + u[42] - r[42] <= 1
 mccormick3[43]: x[43] + u[43] - r[43] <= 1
 mccormick3[44]: x[44] + u[44] - r[44] <= 1
 mccormick3[45]: x[45] + u[45] - r[45] <= 1
 mccormick3[46]: x[46] + u[46] - r[46] <= 1
 mccormick3[47]: x[47] + u[47] - r[47] <= 1
 mccormick3[48]: x[48] + u[48] - r[48] <= 1
 mccormick3[49]: x[49] + u[49] - r[49] <= 1
 mccormick3[50]: x[50] + u[50] - r[50] <= 1
 mccormick3[51]: x[51] + u[51] - r[51] <= 1
 mccormick3[52]: x[52] + u[52] - r[52] <= 1
 mccormick3[53]: x[53] + u[53] - r[53] <= 1
 mccormick3[54]: x[54] + u[54] - r[54] <= 1
 mccormick3[55]: x[55] + u[55] - r[55] <= 1
 mccormick3[56]: x[56] + u[56] - r[56] <= 1
 mccormick3[57]: x[57] + u[57] - r[57] <= 1
 mccormick3[58]: x[58] + u[58] - r[58] <= 1
 mccormick3[59]: x[59] + u[59] - r[59] <= 1
 mccormick3[60]: x[60] + u[60] - r[60] <= 1
 mccormick3[61]: x[61] + u[61] - r[61] <= 1
 mccormick3[62]: x[62] + u[62] - r[62] <= 1
 mccormick3[63]: x[63] + u[63] - r[63] <= 1
 mccormick3[64]: x[64] + u[64] - r[64] <= 1
 mccormick3[65]: x[65] + u[65] - r[65] <= 1
 mccormick3[66]: x[66] + u[66] - r[66] <= 1
 mccormick3[67]: x[67] + u[67] - r[67] <= 1
 mccormick3[68]: x[68] + u[68] - r[68] <= 1
 mccormick3[69]: x[69] + u[69] - r[69] <= 1
 mccormick3[70]: x[70] + u[70] - r[70] <= 1
 mccormick3[71]: x[71] + u[71] - r[71] <= 1
 mccormick3[72]: x[72] + u[72] - r[72] <= 1
 mccormick3[73]: x[73] + u[73] - r[73] <= 1
 mccormick3[74]: x[74] + u[74] - r[74] <= 1
 mccormick3[75]: x[75] + u[75] - r[75] <= 1
 mccormick3[76]: x[76] + u[76] - r[76] <= 1
 mccormick3[77]: x[77] + u[77] - r[77] <= 1
 mccormick3[78]: x[78] + u[78] - r[78] <= 1
 mccormick3[79]: x[79] + u[79] - r[79] <= 1
Bounds
Binaries
 x[0] x[1] x[2] x[3] x[4] x[5] x[6] x[7] x[8] x[9] x[10] x[11] x[12] x[13]
 x[14] x[15] x[16] x[17] x[18] x[19] x[20] x[21] x[22] x[23] x[24] x[25]
 x[26] x[27] x[28] x[29] x[30] x[31] x[32] x[33] x[34] x[35] x[36] x[37]
 x[38] x[39] x[40] x[41] x[42] x[43] x[44] x[45] x[46] x[47] x[48] x[49]
 x[50] x[51] x[52] x[53] x[54] x[55] x[56] x[57] x[58] x[59] x[60] x[61]
 x[62] x[63] x[64] x[65] x[66] x[67] x[68] x[69] x[70] x[71] x[72] x[73]
 x[74] x[75] x[76] x[77] x[78] x[79] u[0] u[1] u[2] u[3] u[4] u[5] u[6]
 u[7] u[8] u[9] u[10] u[11] u[12] u[13] u[14] u[15] u[16] u[17] u[18] u[19]
 u[20] u[21] u[22] u[23] u[24] u[25] u[26] u[27] u[28] u[29] u[30] u[31]
 u[32] u[33] u[34] u[35] u[36] u[37] u[38] u[39] u[40] u[41] u[42] u[43]
 u[44] u[45] u[46] u[47] u[48] u[49] u[50] u[51] u[52] u[53] u[54] u[55]
 u[56] u[57] u[58] u[59] u[60] u[61] u[62] u[63] u[64] u[65] u[66] u[67]
 u[68] u[69] u[70] u[71] u[72] u[73] u[74] u[75] u[76] u[77] u[78] u[79]
 r[0] r[1] r[2] r[3] r[4] r[5] r[6] r[7] r[8] r[9] r[10] r[11] r[12] r[13]
 r[14] r[15] r[16] r[17] r[18] r[19] r[20] r[21] r[22] r[23] r[24] r[25]
 r[26] r[27] r[28] r[29] r[30] r[31] r[32] r[33] r[34] r[35] r[36] r[37]
 r[38] r[39] r[40] r[41] r[42] r[43] r[44] r[45] r[46] r[47] r[48] r[49]
 r[50] r[51] r[52] r[53] r[54] r[55] r[56] r[57] r[58] r[59] r[60] r[61]
 r[62] r[63] r[64] r[65] r[66] r[67] r[68] r[69] r[70] r[71] r[72] r[73]
 r[74] r[75] r[76] r[77] r[78] r[79]
End
