instances/knapsack/discrete_knapsack_uncertainty/knapsack_80_5.kp
82099
80
443

94 9.4 83
7 0.7 87
57 5.7 25
82 8.2 77
75 7.5 62
76 7.6 22
64 6.4 62
38 3.8 64
76 7.6 31
81 8.1 79
62 6.2 40
70 7.0 12
27 2.7 32
71 7.1 43
19 1.9 72
55 5.5 81
48 4.8 35
99 9.9 99
80 8.0 31
97 9.7 30
76 7.6 18
82 8.2 48
55 5.5 29
93 9.3 97
47 4.7 70
43 4.3 75
97 9.7 93
54 5.4 48
52 5.2 83
98 9.8 9
60 6.0 42
58 5.8 21
70 7.0 17
96 9.6 24
63 6.3 92
92 9.2 90
95 9.5 62
75 7.5 16
71 7.1 23
93 9.3 32
42 4.2 53
72 7.2 18
53 5.3 74
88 8.8 92
2 0.2 43
93 9.3 8
4 0.4 9
56 5.6 53
66 6.6 89
15 1.5 74
17 1.7 76
99 9.9 3
88 8.8 24
23 2.3 94
71 7.1 81
2 0.2 11
96 9.6 7
1 0.1 25
79 7.9 25
29 2.9 92
39 3.9 5
65 6.5 27
62 6.2 26
65 6.5 2
94 9.4 79
15 1.5 2
15 1.5 38
9 0.9 98
55 5.5 57
80 8.0 10
60 6.0 2
56 5.6 28
85 8.5 30
26 2.6 66
78 7.8 59
27 2.7 99
9 0.9 39
58 5.8 90
7 0.7 33
9 0.9 72

18236
410

[3.374809325781819 2.9415653352335944 1.0053382097857735 0.5862081935257603 3.802313490712685 4.37719629217006 3.299690822866063 2.374963508719249 1.163475503361599 3.6601076606250764 2.99045446079329 2.8003912208662083 3.553464464712488 3.4324328234097115 0.9236398592667346 0.07582805587979546 4.5246207800258125 2.633187598531395 4.838428340794318 3.902487657381246 2.9776317422050145 3.2602599341351834 0.9144057670062481 4.44077389481352 2.8002612887283904 0.40018420362762375 4.487374845756096 0.310021432561453 2.1387631618515455 2.5977661944286083 0.07548359992450211 0.9708174271929656 4.317017854641904 1.4490919705411391 3.540401532852413 0.017074316037273496 4.581244554851163 1.3782398722414368 3.0233436876790587 0.6952926033149911 4.190098858278628 3.170352138164158 4.074117949222709 4.728839020539282 1.0733350856040442 1.5658365032998462 0.21321047832649193 2.16499184857404 2.5630039784618788 4.880536806563329 3.8783154586136255 1.2437663514935176 4.63217388873004 3.084909065441451 4.855212915175048 3.5096831492819898 3.109292559532029 0.754617556327942 3.4977561635010352 3.086507037594214 2.914905044609192 1.2555249740498438 4.570363416166285 1.6434428820113474 1.3454776114413671 1.3660505809092542 2.923483894089445 1.990953891992475 2.8537266028026775 3.7979671285706327 3.0154858092605172 0.08124242668270973 2.029161436648175 4.349842319247981 1.4394913004226126 1.9238650566834123 1.7647124148373134 0.37606691944363735 3.5661694623893543 2.4724861484036724]

[29 69 27 68 41 3 78 93 62 95 73 88 45 65 90 58 70 53 10 55 54 41 29 72 78 73 91 93 35 100 99 45 69 74 93 94 69 2 9 24 32 39 63 43 36 60 27 67 40 93 20 45 86 53 50 13 22 36 53 43 62 68 97 20 57 17 22 32 37 75 67 19 47 52 73 34 68 52 62 8]
